120
10.0 27.0 
10.0 27.0 
10.0 31.0 
10.0 27.0 
15.0 26.0 
10.0 27.0 
10.0 27.0 
10.0 27.0 
10.0 31.0 
10.0 27.0 
10.0 27.0 
15.0 26.0 
10.0 27.0 
10.0 27.0 
10.0 31.0 
10.0 27.0 
15.0 26.0 
10.0 27.0 
10.0 27.0 
10.0 27.0 
10.0 31.0 
10.0 27.0 
15.0 26.0 
10.0 27.0 
10.0 27.0 
10.0 27.0 
10.0 31.0 
10.0 27.0 
15.0 26.0 
10.0 27.0 
10.0 27.0 
10.0 27.0 
10.0 31.0 
10.0 27.0 
15.0 26.0 
10.0 27.0 
10.0 27.0 
10.0 27.0 
10.0 31.0 
10.0 27.0 
15.0 26.0 
10.0 27.0 
10.0 27.0 
10.0 27.0 
10.0 31.0 
10.0 27.0 
15.0 26.0 
10.0 27.0 
10.0 27.0 
10.0 27.0 
10.0 31.0 
10.0 27.0 
15.0 26.0 
10.0 27.0 
10.0 27.0 
10.0 27.0 
10.0 31.0 
10.0 27.0 
15.0 26.0 
10.0 27.0 
10.0 27.0 
10.0 27.0 
10.0 31.0 
10.0 27.0 
10.0 27.0 
15.0 26.0 
10.0 27.0 
10.0 27.0 
10.0 31.0 
10.0 27.0 
10.0 27.0 
15.0 26.0 
10.0 27.0 
10.0 27.0 
10.0 31.0 
10.0 27.0 
15.0 26.0 
10.0 27.0 
10.0 27.0 
10.0 27.0 
10.0 31.0 
10.0 27.0 
15.0 26.0 
10.0 27.0 
10.0 27.0 
10.0 27.0 
10.0 31.0 
10.0 27.0 
10.0 27.0 
15.0 26.0 
10.0 27.0 
10.0 27.0 
10.0 31.0 
10.0 27.0 
15.0 26.0 
10.0 27.0 
10.0 27.0 
10.0 27.0 
10.0 31.0 
10.0 27.0 
10.0 27.0 
15.0 26.0 
10.0 27.0 
10.0 27.0 
10.0 31.0 
10.0 27.0 
15.0 26.0 
10.0 27.0 
10.0 27.0 
10.0 27.0 
10.0 31.0 
10.0 27.0 
10.0 27.0 
15.0 26.0 
10.0 27.0 
10.0 27.0 
10.0 31.0 
10.0 27.0 
15.0 26.0 
10.0 27.0 

0 18 19 31 
0 18 19 31 
0 18 12 31 
0 18 19 31 
0 26 18 31 
0 18 19 31 
0 18 19 31 
0 18 19 31 
0 18 12 31 
0 18 19 31 
0 18 19 31 
0 26 18 31 
0 18 19 31 
0 18 19 31 
0 18 12 31 
0 18 19 31 
0 26 18 31 
0 18 19 31 
0 18 19 31 
0 18 19 31 
0 18 12 31 
0 18 19 31 
0 26 18 31 
0 18 19 31 
0 18 19 31 
0 18 19 31 
0 18 12 31 
0 18 19 31 
0 26 18 31 
0 18 19 31 
0 18 19 31 
0 18 19 31 
0 18 12 31 
0 18 19 31 
0 26 18 31 
0 18 19 31 
0 18 19 31 
0 18 19 31 
0 18 12 31 
0 18 19 31 
0 26 18 31 
0 18 19 31 
0 18 19 31 
0 18 19 31 
0 18 12 31 
0 18 19 31 
0 26 18 31 
0 18 19 31 
0 18 19 31 
0 18 19 31 
0 18 12 31 
0 18 19 31 
0 26 18 31 
0 18 19 31 
0 18 19 31 
0 18 19 31 
0 18 12 31 
0 18 19 31 
0 26 18 31 
0 18 19 31 
0 18 19 31 
0 18 19 31 
0 18 12 31 
0 18 19 31 
0 18 19 31 
0 26 18 31 
0 18 19 31 
0 18 19 31 
0 18 12 31 
0 18 19 31 
0 18 19 31 
0 26 18 31 
0 18 19 31 
0 18 19 31 
0 18 12 31 
0 18 19 31 
0 26 18 31 
0 18 19 31 
0 18 19 31 
0 18 19 31 
0 18 12 31 
0 18 19 31 
0 26 18 31 
0 18 19 31 
0 18 19 31 
0 18 19 31 
0 18 12 31 
0 18 19 31 
0 18 19 31 
0 26 18 31 
0 18 19 31 
0 18 19 31 
0 18 12 31 
0 18 19 31 
0 26 18 31 
0 18 19 31 
0 18 19 31 
0 18 19 31 
0 18 12 31 
0 18 19 31 
0 18 19 31 
0 26 18 31 
0 18 19 31 
0 18 19 31 
0 18 12 31 
0 18 19 31 
0 26 18 31 
0 18 19 31 
0 18 19 31 
0 18 19 31 
0 18 12 31 
0 18 19 31 
0 18 19 31 
0 26 18 31 
0 18 19 31 
0 18 19 31 
0 18 12 31 
0 18 19 31 
0 26 18 31 
0 18 19 31 
